NAME : XML100_1132_09
DIMENSION : 101
NB_CLUSTERS : 5
CLUSTERING_ALG : KMedoids
CLUSTERING_PARAMS : k(4)
CLUSTERS
1 0
2 1 4 6 14 15 17 20 28 30 33 34 36 37 45 47 50 56 57 58 65 69 71 75 80 83 85 87 93 94 96 100
3 2 7 8 12 19 23 24 25 39 42 43 52 53 59 74 77 81 88 90 95 97 98 99
4 3 5 9 10 11 13 18 22 29 32 35 46 48 55 60 61 62 67 68 70 73 86 91 92
5 16 21 26 27 31 38 40 41 44 49 51 54 63 64 66 72 76 78 79 82 84 89
EOF